c description: Random 3-CNF over 20 variables and 85 clauses
c generator: CNFgen (0.9.2)
c copyright: (C) 2012-2022 Massimo Lauria <massimo.lauria@uniroma1.it>
c url: https://massimolauria.net/cnfgen
c command line: cnfgen --output CNF_4.28/20_bit_85_964.cnf randkcnf 3 20 85
c
p cnf 20 85
10 12 20 0
-5 14 15 0
4 7 -15 0
-6 -16 -18 0
-4 -9 18 0
6 8 -10 0
-1 3 -9 0
-1 2 -20 0
4 -10 15 0
-2 -14 -17 0
-11 13 -15 0
-12 18 -20 0
-3 13 17 0
4 -10 17 0
-1 -3 -7 0
-4 13 -14 0
-8 -10 19 0
4 10 14 0
1 -5 -7 0
1 -14 16 0
-2 3 -5 0
-6 -7 -15 0
-8 9 -13 0
3 -4 19 0
-10 -19 20 0
6 -10 -18 0
3 -7 18 0
-2 -6 -12 0
-8 9 -11 0
9 -17 -19 0
11 -12 16 0
-14 -16 20 0
-10 11 -13 0
6 -12 -18 0
3 -5 11 0
-3 5 17 0
-2 -8 16 0
-1 -13 17 0
-7 -8 14 0
-7 -10 -15 0
-3 6 14 0
5 11 14 0
-2 6 -15 0
8 14 -18 0
-5 13 -15 0
1 10 19 0
-1 -5 9 0
8 10 -15 0
5 6 13 0
-1 -7 -14 0
-10 -16 -17 0
4 16 20 0
-13 -17 20 0
-7 15 -17 0
3 12 -18 0
-4 -7 15 0
13 16 -17 0
-7 -13 15 0
6 11 -14 0
-7 12 16 0
14 -17 -20 0
-1 4 6 0
-11 -14 18 0
10 15 16 0
7 14 16 0
1 -3 -6 0
9 -13 17 0
-5 11 -14 0
-2 -5 -10 0
3 -9 13 0
-4 -6 14 0
2 -8 -9 0
-2 -4 -10 0
11 -18 -19 0
3 -15 -17 0
-6 7 10 0
-7 14 -16 0
10 -12 18 0
-1 -10 -19 0
-1 -9 -19 0
-1 -2 14 0
2 9 -15 0
-4 -9 -11 0
-2 -10 -19 0
3 8 -19 0
